
--- Job 3_Salco_Company_Problem.gms Start 11/17/21 21:48:17 35.1.0 r82a9585 WEX-WEI x86 64bit/MS Windows
--- Applying:
    C:\GAMS\35\gmsprmNT.txt
--- GAMS Parameters defined
    Input "C:\Users\Semih\Desktop\GAMS CALISMA\hasan_gams\3_Salco_Company_Problem.gms"
    PageSize 0
    ScrDir "C:\Users\Semih\Desktop\GAMS CALISMA\hasan_gams\225a\"
    SysDir C:\GAMS\35\
    LogOption 3
    ErrMsg 1
    ErrorLog 99
    IDE 1
    LstTitleLeftAligned 1
Licensee: GAMS Community License for Mehmet Semih BabacanG210511|0002AO-GEN
          Yildiz Technical University                                CL1316
          C:\GAMS\35\gamslice.txt
          Mehmet Semih Babacan, l6918040@std.yildiz.edu.tr                 
          Community license for demonstration and instructional purposes only
GAMS 35.1.0   Copyright (C) 1987-2021 GAMS Development. All rights reserved
--- Starting compilation
--- 3_Salco_Company_Problem.gms(30) 3 Mb
--- Starting execution: elapsed 0:00:00.020
--- Generating MIP model sail
--- 3_Salco_Company_Problem.gms(29) 4 Mb
---   9 rows  13 columns  32 non-zeroes
--- Executing CPLEX (Solvelink=2): elapsed 0:00:00.048

IBM ILOG CPLEX   35.1.0 r82a9585 Released Apr 29, 2021 WEI x86 64bit/MS Window

--- *** This solver runs with a community license. No commercial use.
--- GMO memory 0.50 Mb (peak 0.50 Mb)
--- Dictionary memory 0.00 Mb
--- Cplex 20.1.0.1 link memory 0.00 Mb (peak 0.00 Mb)
--- Starting Cplex

Version identifier: 20.1.0.1 | 2021-04-07 | 3a818710c
CPXPARAM_Advance                                 0
CPXPARAM_Simplex_Display                         2
CPXPARAM_Threads                                 1
CPXPARAM_MIP_Display                             4
CPXPARAM_MIP_Tolerances_AbsMIPGap                0
Tried aggregator 1 time.
LP Presolve eliminated 7 rows and 10 columns.
Reduced LP has 1 rows, 3 columns, and 3 nonzeros.
Presolve time = 0.01 sec. (0.01 ticks)

Iteration      Dual Objective            In Variable           Out Variable
     1           82750.000000                   x(4)     inventory(4) artif

--- LP status (1): optimal.
--- Cplex Time: 0.03sec (det. 0.01 ticks)


Optimal solution found
Objective:        82750.000000

--- Reading solution for model sail
--- Executing after solve: elapsed 0:00:00.348
--- 3_Salco_Company_Problem.gms(30) 4 Mb
*** Status: Normal completion
--- Job 3_Salco_Company_Problem.gms Stop 11/17/21 21:48:17 elapsed 0:00:00.349
